30 4
40 65 40 90 39 54 57 67 83 56 71 68 91 96 83 26 102 31 52 60 94 79 77 72 106 104 73 85 100 49
46 61 48 69 44 47 77 58 107 53 70 54 75 76 83 38 92 23 61 54 84 88 105 55 103 97 83 103 89 41
38 53 38 80 50 48 66 61 98 51 56 54 91 102 69 30 77 18 45 53 79 70 76 57 104 87 78 93 102 43
44 76 37 94 58 51 54 62 84 61 69 61 101 100 87 27 74 30 54 38 91 82 87 62 106 92 83 92 94 46
